(set-info :status unknown)
(declare-fun %Op1 () (_ BitVec 40))
(declare-fun |ana_MaskedValueIsZero(%Op1, (1 << (width(%Op0) - 1)))| () (_ BitVec 1))
(declare-fun |ana_MaskedValueIsZero(%Op0, (1 << (width(%Op0) - 1)))| () (_ BitVec 1))
(declare-fun %Op0 () (_ BitVec 40))
(assert
 (let (($x20720 (= |ana_MaskedValueIsZero(%Op1, (1 << (width(%Op0) - 1)))| (_ bv1 1))))
 (let (($x19898 (= |ana_MaskedValueIsZero(%Op0, (1 << (width(%Op0) - 1)))| (_ bv1 1))))
 (let (($x19626 (and (distinct %Op1 (_ bv0 40)) true)))
 (and $x19626 (or (and (distinct %Op0 (_ bv549755813888 40)) true) (and (distinct %Op1 (_ bv1099511627775 40)) true)) (=> $x19898 (= (bvand %Op0 (bvshl (_ bv1 40) (bvsub (_ bv40 40) (_ bv1 40)))) (_ bv0 40))) (=> $x20720 (= (bvand %Op1 (bvshl (_ bv1 40) (bvsub (_ bv40 40) (_ bv1 40)))) (_ bv0 40))) $x19898 $x20720 (not $x19626))))))
(check-sat)
